NAME : n60w60.002.715.tour
COMMENT : Length = 715
COMMENT : Found by LKH [Keld Helsgaun] Tue Nov  7 19:35:18 2017
TYPE : TOUR
DIMENSION : 61
TOUR_SECTION
1
20
10
14
49
57
45
42
33
53
60
6
2
21
48
56
25
27
55
9
46
15
50
24
19
59
41
37
4
52
35
16
26
43
13
38
17
12
8
23
51
3
54
32
11
58
34
31
47
39
5
18
40
7
44
22
36
61
30
28
29
-1
EOF
